; SPDX-License-Identifier: MPL-2.0
; Copyright (c) 2026 The RIINA Authors.
; Auto-generated from 02_FORMAL/coq/properties/ReferenceOps.v (15 validations)
; Generated by scripts/generate-full-stack.py
;
; Translation Validation for ReferenceOps
; Layer 9: Verifies compiler backend preserves formal semantics.
; Each assertion checks source IR ≡ target code for a proven property.

(set-logic QF_LIA)
(set-option :produce-models true)

; IR node representation
(declare-sort IRNode 0)
(declare-sort TargetNode 0)

; step_preserves_ctx_snd: translation preserves property (matches Coq: Lemma)
(declare-fun source_step_preserves_ctx_snd () Bool)
(declare-fun target_step_preserves_ctx_snd () Bool)
(assert (= source_step_preserves_ctx_snd target_step_preserves_ctx_snd))

; step_preserves_ctx: translation preserves property (matches Coq: Lemma)
(declare-fun source_step_preserves_ctx () Bool)
(declare-fun target_step_preserves_ctx () Bool)
(assert (= source_step_preserves_ctx target_step_preserves_ctx))

; multi_step_preserves_ctx: translation preserves property (matches Coq: Lemma)
(declare-fun source_multi_step_preserves_ctx () Bool)
(declare-fun target_multi_step_preserves_ctx () Bool)
(assert (= source_multi_step_preserves_ctx target_multi_step_preserves_ctx))

; value_multi_step_refl: translation preserves property (matches Coq: Lemma)
(declare-fun source_value_multi_step_refl () Bool)
(declare-fun target_value_multi_step_refl () Bool)
(assert (= source_value_multi_step_refl target_value_multi_step_refl))

; multi_step_ref_inversion: translation preserves property (matches Coq: Lemma)
(declare-fun source_multi_step_ref_inversion () Bool)
(declare-fun target_multi_step_ref_inversion () Bool)
(assert (= source_multi_step_ref_inversion target_multi_step_ref_inversion))

; multi_step_deref_inversion: translation preserves property (matches Coq: Lemma)
(declare-fun source_multi_step_deref_inversion () Bool)
(declare-fun target_multi_step_deref_inversion () Bool)
(assert (= source_multi_step_deref_inversion target_multi_step_deref_inversion))

; multi_step_assign_inversion: translation preserves property (matches Coq: Lemma)
(declare-fun source_multi_step_assign_inversion () Bool)
(declare-fun target_multi_step_assign_inversion () Bool)
(assert (= source_multi_step_assign_inversion target_multi_step_assign_inversion))

; ref_same_location: translation preserves property (matches Coq: Lemma)
(declare-fun source_ref_same_location () Bool)
(declare-fun target_ref_same_location () Bool)
(assert (= source_ref_same_location target_ref_same_location))

; logical_relation_ref_proven: translation preserves property (matches Coq: Lemma)
(declare-fun source_logical_relation_ref_proven () Bool)
(declare-fun target_logical_relation_ref_proven () Bool)
(assert (= source_logical_relation_ref_proven target_logical_relation_ref_proven))

; exp_rel_le_ref: translation preserves property (matches Coq: Lemma)
(declare-fun source_exp_rel_le_ref () Bool)
(declare-fun target_exp_rel_le_ref () Bool)
(assert (= source_exp_rel_le_ref target_exp_rel_le_ref))

; logical_relation_deref_proven: translation preserves property (matches Coq: Lemma)
(declare-fun source_logical_relation_deref_proven () Bool)
(declare-fun target_logical_relation_deref_proven () Bool)
(assert (= source_logical_relation_deref_proven target_logical_relation_deref_proven))

; exp_rel_le_deref: translation preserves property (matches Coq: Lemma)
(declare-fun source_exp_rel_le_deref () Bool)
(declare-fun target_exp_rel_le_deref () Bool)
(assert (= source_exp_rel_le_deref target_exp_rel_le_deref))

; logical_relation_assign_proven: translation preserves property (matches Coq: Lemma)
(declare-fun source_logical_relation_assign_proven () Bool)
(declare-fun target_logical_relation_assign_proven () Bool)
(assert (= source_logical_relation_assign_proven target_logical_relation_assign_proven))

; exp_rel_le_assign: translation preserves property (matches Coq: Lemma)
(declare-fun source_exp_rel_le_assign () Bool)
(declare-fun target_exp_rel_le_assign () Bool)
(assert (= source_exp_rel_le_assign target_exp_rel_le_assign))

; reference_ops_zero_admits: translation preserves property (matches Coq: Theorem)
(declare-fun source_reference_ops_zero_admits () Bool)
(declare-fun target_reference_ops_zero_admits () Bool)
(assert (= source_reference_ops_zero_admits target_reference_ops_zero_admits))

; Verify all translation validations are satisfiable
(check-sat)
(exit)
